p cnf 10 50
-8 6 -1 0
-1 10 -4 0
-5 8 -4 0
-1 -5 -10 0
-8 -5 -9 0
-9 -2 8 0
7 -5 3 0
-3 7 -10 0
1 9 7 0
-6 1 -5 0
2 -1 -4 0
-10 4 8 0
-9 -8 10 0
-9 4 8 0
-5 -1 3 0
9 -4 8 0
3 -8 6 0
1 -3 5 0
3 -2 5 0
6 3 -10 0
10 9 7 0
-4 -6 9 0
-2 1 4 0
2 -6 10 0
-10 8 3 0
-5 -10 -2 0
9 -1 7 0
-6 -10 -5 0
2 -5 -9 0
-4 -9 -10 0
8 -7 -4 0
-5 -4 9 0
7 9 -10 0
10 -2 3 0
-8 10 7 0
5 -7 -10 0
-9 10 7 0
2 -6 -1 0
-3 -10 -5 0
6 -10 -3 0
10 -2 3 0
-6 -10 -7 0
8 -9 5 0
-2 -6 -9 0
4 -10 -5 0
-2 3 5 0
9 -4 10 0
3 8 -6 0
9 -5 -2 0
6 2 5 0
